p edge 56 149
e 1 3
e 1 14
e 1 25
e 1 29
e 1 35
e 1 36
e 2 17
e 2 29
e 2 32
e 2 52
e 3 10
e 3 27
e 3 28
e 3 29
e 3 33
e 3 40
e 3 42
e 4 20
e 4 21
e 4 22
e 4 24
e 4 25
e 4 37
e 4 46
e 4 56
e 5 8
e 5 34
e 5 36
e 5 48
e 5 51
e 5 55
e 6 17
e 6 33
e 6 44
e 6 56
e 7 18
e 7 20
e 7 22
e 7 32
e 7 36
e 7 52
e 7 54
e 8 33
e 8 36
e 9 15
e 9 53
e 10 17
e 10 35
e 10 48
e 10 53
e 10 54
e 11 33
e 11 35
e 11 38
e 11 44
e 12 24
e 12 45
e 12 55
e 13 15
e 13 20
e 13 21
e 13 24
e 13 32
e 13 36
e 14 19
e 14 32
e 15 18
e 15 20
e 16 35
e 16 37
e 16 49
e 17 18
e 17 27
e 17 38
e 17 53
e 17 54
e 18 28
e 19 21
e 19 29
e 19 39
e 19 51
e 20 25
e 20 28
e 20 33
e 21 30
e 21 45
e 21 49
e 22 31
e 22 41
e 23 36
e 23 39
e 23 43
e 23 44
e 23 48
e 24 25
e 24 27
e 24 32
e 24 44
e 24 46
e 25 27
e 25 29
e 25 44
e 25 48
e 26 28
e 26 34
e 26 38
e 26 42
e 26 43
e 27 32
e 28 39
e 28 41
e 28 52
e 29 31
e 29 45
e 29 49
e 29 56
e 30 34
e 30 51
e 31 32
e 31 38
e 31 41
e 32 34
e 32 35
e 32 40
e 32 50
e 33 42
e 33 54
e 33 55
e 35 38
e 35 56
e 36 39
e 37 40
e 37 41
e 37 43
e 38 48
e 38 54
e 39 43
e 39 44
e 39 47
e 40 42
e 40 48
e 41 51
e 44 45
e 44 47
e 45 49
e 46 47
e 46 54
e 50 53
e 51 53
